BN Boundary 2212_40_40 with the expansions of 102_100
   1.060000000000000
    16.5402934799999990    0.0000000000000000    0.0000000000000000
     0.0000000000000000    8.1079869999999996    0.0000000000000000
     0.0000000000000000    0.0000000000000000    3.6260020000000002
   B    N 
    40    40
Direct
   0.500000000000000    0.996475922802375    0.009370603133021  
  0.8946735858005042  0.4014930848054874  0.9877712577671929
  0.1053264141994958  0.4014930848054874  0.9877712577671929
  0.8472439110127326  0.5996871216080848  0.4976522402944923
  0.1527560889872674  0.5996871216080848  0.4976522402944923
  0.6053263991994910  0.0985069151945126  0.4877712577671929
  0.3946736008005090  0.0985069151945126  0.4877712577671929
  0.0000000499999970  0.5035240171976270  0.5093706031330214
  0.5598207071709638  0.2994486477561153  0.0020145472345376
  0.4401792928290362  0.2994486477561153  0.0020145472345376
  0.9401791878290382  0.7005512522438835  0.0020145472345376
  0.0598208121709618  0.7005512522438835  0.0020145472345376
  0.0000000499999970  0.0035240771976248  0.0093706031330214
  0.7979861400697601  0.7995370700148641  0.9957771927951669
  0.2020138599302399  0.7995370700148641  0.9957771927951669
  0.9401792878290394  0.2005513222438822  0.5020145472345376
  0.0598207121709606  0.2005513222438822  0.5020145472345376
  0.5000000000000000  0.4964759228023752  0.5093706031330214
  0.8946735358005071  0.9014931348054844  0.4877712577671929
  0.1053264641994929  0.9014931348054844  0.4877712577671929
  0.7020137849302373  0.2004628499851364  0.9957771927951669
  0.2979862150697627  0.2004628499851364  0.9957771927951669
  0.6527560889872674  0.4003127883919149  0.4976522402944923
  0.3472439110127326  0.4003127883919149  0.4976522402944923
  0.7979861400697601  0.2995371200148611  0.4957771927951669
  0.2020138599302399  0.2995371200148611  0.4957771927951669
  0.7499999400000021  0.4999999400000021  0.9977412510414396
  0.2500000599999979  0.4999999400000021  0.9977412510414396
  0.6053263991994910  0.5985068251945123  0.9877712577671929
  0.3946736008005090  0.5985068251945123  0.9877712577671929
  0.7500000000000000  0.0000000000000000  0.4977412510414396
  0.2500000000000000  0.0000000000000000  0.4977412510414396
  0.5598207371709663  0.7994485477561213  0.5020145472345376
  0.4401792628290337  0.7994485477561213  0.5020145472345376
  0.7020137849302373  0.7004628799851389  0.4957771927951669
  0.2979862150697627  0.7004628799851389  0.4957771927951669
  0.8472439110127326  0.0996870916080894  0.9976522402944923
  0.1527560889872674  0.0996870916080894  0.9976522402944923
  0.6527560889872674  0.9003127383919107  0.9976522402944923
  0.3472439110127326  0.9003127383919107  0.9976522402944923
  0.5436381660930962  0.1453200530824077  0.7684444416258955
  0.4563618339069038  0.1453200530824077  0.7684444416258955
  0.9217472812806378  0.5534886156221006  0.7498423310845865
  0.0782527187193622  0.5534886156221006  0.7498423310845865
  0.8698992085983832  0.7485549578785182  0.2511932624803919
  0.1301007914016168  0.7485549578785182  0.2511932624803919
  0.6301007414016198  0.2514449421214806  0.2511932624803919
  0.3698992585983802  0.2514449421214806  0.2511932624803919
  0.5782525937193626  0.4465113343779024  0.7498423310845865
  0.4217474062806374  0.4465113343779024  0.7498423310845865
  0.9563618474069031  0.8546797969175941  0.7684444416258955
  0.0436381525930969  0.8546797969175941  0.7684444416258955
  0.8223785495065385  0.9502493426763010  0.7461662928294359
  0.1776214504934615  0.9502493426763010  0.7461662928294359
  0.9563617824069013  0.3546798269175966  0.2684444416258955
  0.0436382175930987  0.3546798269175966  0.2684444416258955
  0.5436381660930962  0.6453201030824047  0.2684444416258955
  0.4563618339069038  0.6453201030824047  0.2684444416258955
  0.6776214154934621  0.0497505543237011  0.7461662928294359
  0.3223785845065379  0.0497505543237011  0.7461662928294359
  0.7256355596474720  0.3506075326921518  0.7475825068010735
  0.2743644403525280  0.3506075326921518  0.7475825068010735
  0.6776214154934621  0.5497504273237013  0.2461662928294359
  0.3223785845065379  0.5497504273237013  0.2461662928294359
  0.8223785495065385  0.4502494726763047  0.2461662928294359
  0.1776214504934615  0.4502494726763047  0.2461662928294359
  0.7743644403525280  0.6493923973078495  0.7475825068010735
  0.2256355596474720  0.6493923973078495  0.7475825068010735
  0.6301007414016198  0.7514448421214794  0.7511932624803919
  0.3698992585983802  0.7514448421214794  0.7511932624803919
  0.7743643903525310  0.1493923473078524  0.2475825068010735
  0.2256356096474690  0.1493923473078524  0.2475825068010735
  0.5782525937193626  0.9465113343779024  0.2498423310845865
  0.4217474062806374  0.9465113343779024  0.2498423310845865
  0.9217473312806348  0.0534886926221034  0.2498423310845865
  0.0782526687193652  0.0534886926221034  0.2498423310845865
  0.7256355596474720  0.8506075026921494  0.2475825068010735
  0.2743644403525280  0.8506075026921494  0.2475825068010735
  0.8698992585983802  0.2485550578785194  0.7511932624803919
  0.1301007414016198  0.2485550578785194  0.7511932624803919
 
  0.00000000E+00  0.00000000E+00  0.00000000E+00
  0.00000000E+00  0.00000000E+00  0.00000000E+00
  0.00000000E+00  0.00000000E+00  0.00000000E+00
  0.00000000E+00  0.00000000E+00  0.00000000E+00
  0.00000000E+00  0.00000000E+00  0.00000000E+00
  0.00000000E+00  0.00000000E+00  0.00000000E+00
  0.00000000E+00  0.00000000E+00  0.00000000E+00
  0.00000000E+00  0.00000000E+00  0.00000000E+00
  0.00000000E+00  0.00000000E+00  0.00000000E+00
  0.00000000E+00  0.00000000E+00  0.00000000E+00
  0.00000000E+00  0.00000000E+00  0.00000000E+00
  0.00000000E+00  0.00000000E+00  0.00000000E+00
  0.00000000E+00  0.00000000E+00  0.00000000E+00
  0.00000000E+00  0.00000000E+00  0.00000000E+00
  0.00000000E+00  0.00000000E+00  0.00000000E+00
  0.00000000E+00  0.00000000E+00  0.00000000E+00
  0.00000000E+00  0.00000000E+00  0.00000000E+00
  0.00000000E+00  0.00000000E+00  0.00000000E+00
  0.00000000E+00  0.00000000E+00  0.00000000E+00
  0.00000000E+00  0.00000000E+00  0.00000000E+00
  0.00000000E+00  0.00000000E+00  0.00000000E+00
  0.00000000E+00  0.00000000E+00  0.00000000E+00
  0.00000000E+00  0.00000000E+00  0.00000000E+00
  0.00000000E+00  0.00000000E+00  0.00000000E+00
  0.00000000E+00  0.00000000E+00  0.00000000E+00
  0.00000000E+00  0.00000000E+00  0.00000000E+00
  0.00000000E+00  0.00000000E+00  0.00000000E+00
  0.00000000E+00  0.00000000E+00  0.00000000E+00
  0.00000000E+00  0.00000000E+00  0.00000000E+00
  0.00000000E+00  0.00000000E+00  0.00000000E+00
  0.00000000E+00  0.00000000E+00  0.00000000E+00
  0.00000000E+00  0.00000000E+00  0.00000000E+00
  0.00000000E+00  0.00000000E+00  0.00000000E+00
  0.00000000E+00  0.00000000E+00  0.00000000E+00
  0.00000000E+00  0.00000000E+00  0.00000000E+00
  0.00000000E+00  0.00000000E+00  0.00000000E+00
  0.00000000E+00  0.00000000E+00  0.00000000E+00
  0.00000000E+00  0.00000000E+00  0.00000000E+00
  0.00000000E+00  0.00000000E+00  0.00000000E+00
  0.00000000E+00  0.00000000E+00  0.00000000E+00
  0.00000000E+00  0.00000000E+00  0.00000000E+00
  0.00000000E+00  0.00000000E+00  0.00000000E+00
  0.00000000E+00  0.00000000E+00  0.00000000E+00
  0.00000000E+00  0.00000000E+00  0.00000000E+00
  0.00000000E+00  0.00000000E+00  0.00000000E+00
  0.00000000E+00  0.00000000E+00  0.00000000E+00
  0.00000000E+00  0.00000000E+00  0.00000000E+00
  0.00000000E+00  0.00000000E+00  0.00000000E+00
  0.00000000E+00  0.00000000E+00  0.00000000E+00
  0.00000000E+00  0.00000000E+00  0.00000000E+00
  0.00000000E+00  0.00000000E+00  0.00000000E+00
  0.00000000E+00  0.00000000E+00  0.00000000E+00
  0.00000000E+00  0.00000000E+00  0.00000000E+00
  0.00000000E+00  0.00000000E+00  0.00000000E+00
  0.00000000E+00  0.00000000E+00  0.00000000E+00
  0.00000000E+00  0.00000000E+00  0.00000000E+00
  0.00000000E+00  0.00000000E+00  0.00000000E+00
  0.00000000E+00  0.00000000E+00  0.00000000E+00
  0.00000000E+00  0.00000000E+00  0.00000000E+00
  0.00000000E+00  0.00000000E+00  0.00000000E+00
  0.00000000E+00  0.00000000E+00  0.00000000E+00
  0.00000000E+00  0.00000000E+00  0.00000000E+00
  0.00000000E+00  0.00000000E+00  0.00000000E+00
  0.00000000E+00  0.00000000E+00  0.00000000E+00
  0.00000000E+00  0.00000000E+00  0.00000000E+00
  0.00000000E+00  0.00000000E+00  0.00000000E+00
  0.00000000E+00  0.00000000E+00  0.00000000E+00
  0.00000000E+00  0.00000000E+00  0.00000000E+00
  0.00000000E+00  0.00000000E+00  0.00000000E+00
  0.00000000E+00  0.00000000E+00  0.00000000E+00
  0.00000000E+00  0.00000000E+00  0.00000000E+00
  0.00000000E+00  0.00000000E+00  0.00000000E+00
  0.00000000E+00  0.00000000E+00  0.00000000E+00
  0.00000000E+00  0.00000000E+00  0.00000000E+00
  0.00000000E+00  0.00000000E+00  0.00000000E+00
  0.00000000E+00  0.00000000E+00  0.00000000E+00
  0.00000000E+00  0.00000000E+00  0.00000000E+00
  0.00000000E+00  0.00000000E+00  0.00000000E+00
  0.00000000E+00  0.00000000E+00  0.00000000E+00
  0.00000000E+00  0.00000000E+00  0.00000000E+00
