BN Boudnary model for 2212_40_40
1.05
    16.2159739999999992    0.0000000000000000    0.0000000000000000
     0.0000000000000000    8.1079869999999996    0.0000000000000000
     0.0000000000000000    0.0000000000000000    3.6260020000000002
   B    N 
    40    40
Direct
  0.5000000000000000  0.0434015676437980  0.9875970493519048
  0.9095197380701592  0.3348665841334650  0.9600438567401852
  0.0904802619298408  0.3348665841334650  0.9600438567401852
  0.8718741594154196  0.5327482630573712  0.4895173244763882
  0.1281258405845804  0.5327482630573712  0.4895173244763882
  0.5904802469298360  0.1651334158665350  0.4600438567401852
  0.4095197530701640  0.1651334158665350  0.4600438567401852
  0.0000000499999970  0.4565983723562042  0.4875970493518977
  0.5458977935072866  0.3911722621820886  0.0265091192135003
  0.4541022064927134  0.3911722621820886  0.0265091192135003
  0.9541021014927153  0.6088276378179103  0.0265091192135003
  0.0458978985072847  0.6088276378179103  0.0265091192135003
  0.0000000499999970  0.9565984323562020  0.9875970493519048
  0.8097892426169579  0.7535776306543411  0.9213243259973964
  0.1902107573830421  0.7535776306543411  0.9213243259973964
  0.9541022014927165  0.1088277078179090  0.5265091192135003
  0.0458977985072835  0.1088277078179090  0.5265091192135003
  0.5000000000000000  0.5434015676437980  0.4875970493518977
  0.9095196880701621  0.8348666341334621  0.4600438567401852
  0.0904803119298379  0.8348666341334621  0.4600438567401852
  0.6902106823830394  0.2464222893456594  0.9213243259973964
  0.3097893176169606  0.2464222893456594  0.9213243259973964
  0.6281258405845804  0.4672516469426284  0.4895173244763882
  0.3718741594154196  0.4672516469426284  0.4895173244763882
  0.8097892426169579  0.2535776806543382  0.4213243259973964
  0.1902107573830421  0.2535776806543382  0.4213243259973964
  0.7499999400000021  0.4999999400000021  0.0591539120721052
  0.2500000599999979  0.4999999400000021  0.0591539120721052
  0.5904802469298360  0.6651333258665346  0.9600438567401852
  0.4095197530701640  0.6651333258665346  0.9600438567401852
  0.7500000000000000  0.0000000000000000  0.5591539120721052
  0.2500000000000000  0.0000000000000000  0.5591539120721052
  0.5458978235072891  0.8911721621820945  0.5265091192135003
  0.4541021764927109  0.8911721621820945  0.5265091192135003
  0.6902106823830394  0.7464223193456618  0.4213243259973964
  0.3097893176169606  0.7464223193456618  0.4213243259973964
  0.8718741594154196  0.0327482330573758  0.9895173244763882
  0.1281258405845804  0.0327482330573758  0.9895173244763882
  0.6281258405845804  0.9672515969426243  0.9895173244763882
  0.3718741594154196  0.9672515969426243  0.9895173244763882
  0.7663202745486473  0.1524478792885517  0.8385105989323591
  0.2336797254513527  0.1524478792885517  0.8385105989323591
  0.9327782732005119  0.4768909726123738  0.7495123967945361
  0.0672217267994881  0.4768909726123738  0.7495123967945361
  0.9058853634375907  0.6799768859831232  0.2954467313010980
  0.0941146365624093  0.6799768859831232  0.2954467313010980
  0.5941145865624122  0.3200230140168756  0.2954467313010980
  0.4058854134375878  0.3200230140168756  0.2954467313010980
  0.5672216017994884  0.5231089773876292  0.7495123967945361
  0.4327783982005116  0.5231089773876292  0.7495123967945361
  0.7336797389513521  0.8475519707114501  0.8385105989323591
  0.2663202610486479  0.8475519707114501  0.8385105989323591
  0.8605046523714890  0.8840366408929938  0.7562741799278356
  0.1394953476285110  0.8840366408929938  0.7562741799278356
  0.7336796739513503  0.3475520007114525  0.3385105989323591
  0.2663203260486497  0.3475520007114525  0.3385105989323591
  0.7663202745486473  0.6524479292885488  0.3385105989323591
  0.2336797254513527  0.6524479292885488  0.3385105989323591
  0.6394953126285117  0.1159632561070083  0.7562741799278356
  0.3605046873714883  0.1159632561070083  0.7562741799278356
  0.6977638230918757  0.3968210094993481  0.6894859859047031
  0.3022361769081243  0.3968210094993481  0.6894859859047031
  0.6394953126285117  0.6159631291070085  0.2562741799278356
  0.3605046873714883  0.6159631291070085  0.2562741799278356
  0.8605046523714890  0.3840367708929975  0.2562741799278356
  0.1394953476285110  0.3840367708929975  0.2562741799278356
  0.8022361769081243  0.6031789205006532  0.6894859859047031
  0.1977638230918757  0.6031789205006532  0.6894859859047031
  0.5941145865624122  0.8200229140168744  0.7954467313010980
  0.4058854134375878  0.8200229140168744  0.7954467313010980
  0.8022361269081273  0.1031788705006562  0.1894859859047031
  0.1977638730918727  0.1031788705006562  0.1894859859047031
  0.5672216017994884  0.0231089773876292  0.2495123967945361
  0.4327783982005116  0.0231089773876292  0.2495123967945361
  0.9327783232005089  0.9768910496123766  0.2495123967945361
  0.0672216767994911  0.9768910496123766  0.2495123967945361
  0.6977638230918757  0.8968209794993456  0.1894859859047031
  0.3022361769081243  0.8968209794993456  0.1894859859047031
  0.9058854134375878  0.1799769859831244  0.7954467313010980
  0.0941145865624122  0.1799769859831244  0.7954467313010980
 
  0.00000000E+00  0.00000000E+00  0.00000000E+00
  0.00000000E+00  0.00000000E+00  0.00000000E+00
  0.00000000E+00  0.00000000E+00  0.00000000E+00
  0.00000000E+00  0.00000000E+00  0.00000000E+00
  0.00000000E+00  0.00000000E+00  0.00000000E+00
  0.00000000E+00  0.00000000E+00  0.00000000E+00
  0.00000000E+00  0.00000000E+00  0.00000000E+00
  0.00000000E+00  0.00000000E+00  0.00000000E+00
  0.00000000E+00  0.00000000E+00  0.00000000E+00
  0.00000000E+00  0.00000000E+00  0.00000000E+00
  0.00000000E+00  0.00000000E+00  0.00000000E+00
  0.00000000E+00  0.00000000E+00  0.00000000E+00
  0.00000000E+00  0.00000000E+00  0.00000000E+00
  0.00000000E+00  0.00000000E+00  0.00000000E+00
  0.00000000E+00  0.00000000E+00  0.00000000E+00
  0.00000000E+00  0.00000000E+00  0.00000000E+00
  0.00000000E+00  0.00000000E+00  0.00000000E+00
  0.00000000E+00  0.00000000E+00  0.00000000E+00
  0.00000000E+00  0.00000000E+00  0.00000000E+00
  0.00000000E+00  0.00000000E+00  0.00000000E+00
  0.00000000E+00  0.00000000E+00  0.00000000E+00
  0.00000000E+00  0.00000000E+00  0.00000000E+00
  0.00000000E+00  0.00000000E+00  0.00000000E+00
  0.00000000E+00  0.00000000E+00  0.00000000E+00
  0.00000000E+00  0.00000000E+00  0.00000000E+00
  0.00000000E+00  0.00000000E+00  0.00000000E+00
  0.00000000E+00  0.00000000E+00  0.00000000E+00
  0.00000000E+00  0.00000000E+00  0.00000000E+00
  0.00000000E+00  0.00000000E+00  0.00000000E+00
  0.00000000E+00  0.00000000E+00  0.00000000E+00
  0.00000000E+00  0.00000000E+00  0.00000000E+00
  0.00000000E+00  0.00000000E+00  0.00000000E+00
  0.00000000E+00  0.00000000E+00  0.00000000E+00
  0.00000000E+00  0.00000000E+00  0.00000000E+00
  0.00000000E+00  0.00000000E+00  0.00000000E+00
  0.00000000E+00  0.00000000E+00  0.00000000E+00
  0.00000000E+00  0.00000000E+00  0.00000000E+00
  0.00000000E+00  0.00000000E+00  0.00000000E+00
  0.00000000E+00  0.00000000E+00  0.00000000E+00
  0.00000000E+00  0.00000000E+00  0.00000000E+00
  0.00000000E+00  0.00000000E+00  0.00000000E+00
  0.00000000E+00  0.00000000E+00  0.00000000E+00
  0.00000000E+00  0.00000000E+00  0.00000000E+00
  0.00000000E+00  0.00000000E+00  0.00000000E+00
  0.00000000E+00  0.00000000E+00  0.00000000E+00
  0.00000000E+00  0.00000000E+00  0.00000000E+00
  0.00000000E+00  0.00000000E+00  0.00000000E+00
  0.00000000E+00  0.00000000E+00  0.00000000E+00
  0.00000000E+00  0.00000000E+00  0.00000000E+00
  0.00000000E+00  0.00000000E+00  0.00000000E+00
  0.00000000E+00  0.00000000E+00  0.00000000E+00
  0.00000000E+00  0.00000000E+00  0.00000000E+00
  0.00000000E+00  0.00000000E+00  0.00000000E+00
  0.00000000E+00  0.00000000E+00  0.00000000E+00
  0.00000000E+00  0.00000000E+00  0.00000000E+00
  0.00000000E+00  0.00000000E+00  0.00000000E+00
  0.00000000E+00  0.00000000E+00  0.00000000E+00
  0.00000000E+00  0.00000000E+00  0.00000000E+00
  0.00000000E+00  0.00000000E+00  0.00000000E+00
  0.00000000E+00  0.00000000E+00  0.00000000E+00
  0.00000000E+00  0.00000000E+00  0.00000000E+00
  0.00000000E+00  0.00000000E+00  0.00000000E+00
  0.00000000E+00  0.00000000E+00  0.00000000E+00
  0.00000000E+00  0.00000000E+00  0.00000000E+00
  0.00000000E+00  0.00000000E+00  0.00000000E+00
  0.00000000E+00  0.00000000E+00  0.00000000E+00
  0.00000000E+00  0.00000000E+00  0.00000000E+00
  0.00000000E+00  0.00000000E+00  0.00000000E+00
  0.00000000E+00  0.00000000E+00  0.00000000E+00
  0.00000000E+00  0.00000000E+00  0.00000000E+00
  0.00000000E+00  0.00000000E+00  0.00000000E+00
  0.00000000E+00  0.00000000E+00  0.00000000E+00
  0.00000000E+00  0.00000000E+00  0.00000000E+00
  0.00000000E+00  0.00000000E+00  0.00000000E+00
  0.00000000E+00  0.00000000E+00  0.00000000E+00
  0.00000000E+00  0.00000000E+00  0.00000000E+00
  0.00000000E+00  0.00000000E+00  0.00000000E+00
  0.00000000E+00  0.00000000E+00  0.00000000E+00
  0.00000000E+00  0.00000000E+00  0.00000000E+00
  0.00000000E+00  0.00000000E+00  0.00000000E+00
