B4 N4 from Material Project, n_expand= 2 x  2 x  2, 
1.000
   5.12794120559197    0.0000000000    0.0000000000
   0.0000000000    4.44092735315564    0.0000000000
   0.0000000000    0.0000000000    6.28041969234636
B N 
12 12
Direct
 0 0 0
 0.5 0 0
 0.25 0.5 0
 0.75 0.5 0
 0.25 0.1666666667 0.3333333333
 0.75 0.1666666667 0.3333333333
 0  0.6666666667 0.3333333333
 0.5  0.6666666667 0.3333333333
 0.0 0.3333333333 0.6666666667
 0.5 0.3333333333 0.6666666667
 0.25 0.8333333333 0.6666666667
 0.75 0.8333333333 0.6666666667
 0 0 0.25
 0.5 0 0.25
 0.25 0.5 0.25
 0.75 0.5 0.25
 0.25 0.1666666667 0.5833333333
 0.75 0.1666666667 0.5833333333
 0  0.6666666667   0.5833333333
 0.5  0.6666666667 0.5833333333
 0.0 0.3333333333 0.9166666667
 0.5 0.3333333333 0.9166666667
 0.25 0.8333333333 0.9166666667
 0.75 0.8333333333 0.9166666667
 
 
 