POSCAR_b2212_34_34_094_098, a strage structure of hex like
1.05
    15.2430155599999999    0.0000000000000000    0.0000000000000000
     0.0000000000000000    7.9458272599999997    0.0000000000000000
     0.0000000000000000    0.0000000000000000    3.6260020000000002
   B    N 
    34    34
Direct
  0.5138550423575552  0.9863836429362252  0.1059513012425413
  0.9315701183941201  0.3736131195974934  0.7974832084241612
  0.0885815191662829  0.3961424987997617  0.9948166472479656
  0.8646409492328004  0.5894480271889293  0.3466084299637586
  0.1525151331887855  0.5988134110272227  0.5454544118218578
  0.5641957452228610  0.1489198674358008  0.5587177838983379
  0.4114876617065235  0.0817515865120555  0.5785632954445532
  0.4704595855430398  0.2819383679059655  0.0812804434519094
  0.9997828550731001  0.6490233333940338  0.6841821861524409
  0.8043039308138802  0.8051785588276275  0.8942368125431557
  0.2041486837065065  0.7912244538909974  0.0409782434076362
  0.9997829550731012  0.1490234033940325  0.1841821861524409
  0.5138550423575552  0.4863836429362252  0.6059513012425413
  0.9315700683941230  0.8736131695974905  0.2974832084241612
  0.0885815691662799  0.8961425487997587  0.4948166472479656
  0.6915472217229990  0.2234058310344835  0.9420333243820451
  0.3104263875584294  0.1868328505047572  0.0624069908522031
  0.6250897668486459  0.4385493148283501  0.4931092101817711
  0.3616493912255052  0.3836636941035820  0.5694928041957752
  0.8043039308138802  0.3051786088276245  0.3942368125431557
  0.2041486837065065  0.2912245038909944  0.5409782434076362
  0.7314376969579399  0.5231995381326868  0.9679184484168175
  0.2546636999172307  0.4879624971383336  0.0572145315231580
  0.5641957452228610  0.6489197774358004  0.0587177838983379
  0.4114876617065235  0.5817514965120552  0.0785632954445532
  0.7314377569579378  0.0231995981326847  0.4679184484168175
  0.2546636399172328  0.9879625571383315  0.5572145315231580
  0.4704595555430373  0.7819382679059714  0.5812804434519094
  0.6915472217229990  0.7234058610344860  0.4420333243820451
  0.3104263875584294  0.6868328805047597  0.5624069908522031
  0.8646409492328004  0.0894479971889339  0.8466084299637586
  0.1525151331887855  0.0988133810272274  0.0454544118218578
  0.6250897668486459  0.9385492648283460  0.9931092101817711
  0.3616493912255052  0.8836636441035779  0.0694928041957752
  0.4898843910858659  0.1243623305244270  0.8305372962482096
  0.9290654696549865  0.5382361256554375  0.6197946744343099
  0.0793776658104264  0.5652234929714197  0.8073230216325911
  0.8678817539671684  0.7539868988268026  0.1733454175004780
  0.1348089328063367  0.7482084265387812  0.3019267354033701
  0.5522322206379044  0.3195802145956748  0.3669289505062849
  0.3901442960734869  0.2336109303090765  0.3230580686219824
  0.4396582093374946  0.4304339716007775  0.8379989501361891
  0.9991332004434597  0.8209157935565230  0.5603442929781011
  0.8049501009577185  0.9668773855980390  0.7135650421242232
  0.1744995847020334  0.9406163181446772  0.7988037686668790
  0.9991331354434578  0.3209158235565255  0.0603442929781011
  0.4898843910858659  0.6243623805244241  0.3305372962482096
  0.6461786870467847  0.0871290826469959  0.7499816305832994
  0.3341542309668171  0.0342401267544972  0.8185007000519420
  0.6879609223574263  0.3836908937480459  0.7680612178890058
  0.2841747997203896  0.3377759431453953  0.8112392363992669
  0.6461786870467847  0.5871289556469961  0.2499816305832994
  0.3341542309668171  0.5342399997544973  0.3185007000519420
  0.8049501009577185  0.4668775155980427  0.2135650421242232
  0.1744995847020334  0.4406164481446808  0.2988037686668790
  0.7468270323781212  0.6790780183559235  0.7432983182697868
  0.2337130299173893  0.6399820977692272  0.8048446054039928
  0.5522322206379044  0.8195801145956736  0.8669289505062849
  0.3901442960734869  0.7336108303090754  0.8230580686219824
  0.7468269823781242  0.1790779683559265  0.2432983182697868
  0.2337130799173863  0.1399820477692302  0.3048446054039928
  0.4396582093374946  0.9304339716007775  0.3379989501361891
  0.9290655196549835  0.0382362026554404  0.1197946744343099
  0.0793776158104293  0.0652235699714225  0.3073230216325911
  0.6879609223574263  0.8836908637480434  0.2680612178890058
  0.2841747997203896  0.8377759131453928  0.3112392363992669
  0.8678818039671654  0.2539869988268038  0.6733454175004780
  0.1348088828063396  0.2482085265387823  0.8019267354033701
 
  0.00000000E+00  0.00000000E+00  0.00000000E+00
  0.00000000E+00  0.00000000E+00  0.00000000E+00
  0.00000000E+00  0.00000000E+00  0.00000000E+00
  0.00000000E+00  0.00000000E+00  0.00000000E+00
  0.00000000E+00  0.00000000E+00  0.00000000E+00
  0.00000000E+00  0.00000000E+00  0.00000000E+00
  0.00000000E+00  0.00000000E+00  0.00000000E+00
  0.00000000E+00  0.00000000E+00  0.00000000E+00
  0.00000000E+00  0.00000000E+00  0.00000000E+00
  0.00000000E+00  0.00000000E+00  0.00000000E+00
  0.00000000E+00  0.00000000E+00  0.00000000E+00
  0.00000000E+00  0.00000000E+00  0.00000000E+00
  0.00000000E+00  0.00000000E+00  0.00000000E+00
  0.00000000E+00  0.00000000E+00  0.00000000E+00
  0.00000000E+00  0.00000000E+00  0.00000000E+00
  0.00000000E+00  0.00000000E+00  0.00000000E+00
  0.00000000E+00  0.00000000E+00  0.00000000E+00
  0.00000000E+00  0.00000000E+00  0.00000000E+00
  0.00000000E+00  0.00000000E+00  0.00000000E+00
  0.00000000E+00  0.00000000E+00  0.00000000E+00
  0.00000000E+00  0.00000000E+00  0.00000000E+00
  0.00000000E+00  0.00000000E+00  0.00000000E+00
  0.00000000E+00  0.00000000E+00  0.00000000E+00
  0.00000000E+00  0.00000000E+00  0.00000000E+00
  0.00000000E+00  0.00000000E+00  0.00000000E+00
  0.00000000E+00  0.00000000E+00  0.00000000E+00
  0.00000000E+00  0.00000000E+00  0.00000000E+00
  0.00000000E+00  0.00000000E+00  0.00000000E+00
  0.00000000E+00  0.00000000E+00  0.00000000E+00
  0.00000000E+00  0.00000000E+00  0.00000000E+00
  0.00000000E+00  0.00000000E+00  0.00000000E+00
  0.00000000E+00  0.00000000E+00  0.00000000E+00
  0.00000000E+00  0.00000000E+00  0.00000000E+00
  0.00000000E+00  0.00000000E+00  0.00000000E+00
  0.00000000E+00  0.00000000E+00  0.00000000E+00
  0.00000000E+00  0.00000000E+00  0.00000000E+00
  0.00000000E+00  0.00000000E+00  0.00000000E+00
  0.00000000E+00  0.00000000E+00  0.00000000E+00
  0.00000000E+00  0.00000000E+00  0.00000000E+00
  0.00000000E+00  0.00000000E+00  0.00000000E+00
  0.00000000E+00  0.00000000E+00  0.00000000E+00
  0.00000000E+00  0.00000000E+00  0.00000000E+00
  0.00000000E+00  0.00000000E+00  0.00000000E+00
  0.00000000E+00  0.00000000E+00  0.00000000E+00
  0.00000000E+00  0.00000000E+00  0.00000000E+00
  0.00000000E+00  0.00000000E+00  0.00000000E+00
  0.00000000E+00  0.00000000E+00  0.00000000E+00
  0.00000000E+00  0.00000000E+00  0.00000000E+00
  0.00000000E+00  0.00000000E+00  0.00000000E+00
  0.00000000E+00  0.00000000E+00  0.00000000E+00
  0.00000000E+00  0.00000000E+00  0.00000000E+00
  0.00000000E+00  0.00000000E+00  0.00000000E+00
  0.00000000E+00  0.00000000E+00  0.00000000E+00
  0.00000000E+00  0.00000000E+00  0.00000000E+00
  0.00000000E+00  0.00000000E+00  0.00000000E+00
  0.00000000E+00  0.00000000E+00  0.00000000E+00
  0.00000000E+00  0.00000000E+00  0.00000000E+00
  0.00000000E+00  0.00000000E+00  0.00000000E+00
  0.00000000E+00  0.00000000E+00  0.00000000E+00
  0.00000000E+00  0.00000000E+00  0.00000000E+00
  0.00000000E+00  0.00000000E+00  0.00000000E+00
  0.00000000E+00  0.00000000E+00  0.00000000E+00
  0.00000000E+00  0.00000000E+00  0.00000000E+00
  0.00000000E+00  0.00000000E+00  0.00000000E+00
  0.00000000E+00  0.00000000E+00  0.00000000E+00
  0.00000000E+00  0.00000000E+00  0.00000000E+00
  0.00000000E+00  0.00000000E+00  0.00000000E+00
  0.00000000E+00  0.00000000E+00  0.00000000E+00
