B12 N12 for Orthorhombic unit cell for Bain path
   1.060000000000000
   5.1279412056    0.0000000000    0.0000000000
   0.0000000000    4.4409273532    0.0000000000
   0.0000000000    0.0000000000    6.2804196923
    B    N
    12   12
Selective dynamics
Direct
   0.000000000000000    0.000000000000000    0.000000000000000  T T T
   0.5000000000    0.0000000000    0.0000000000 T T T
   0.2500000000    0.5000000000    0.0000000000 T T T
   0.7500000000    0.5000000000    0.0000000000 T T T
   0.2500000000    0.1666666667    0.3333333333 T T T
   0.7500000000    0.1666666667    0.3333333333 T T T
   0.0000000000    0.6666666667    0.3333333333 T T T
   0.5000000000    0.6666666667    0.3333333333 T T T
   0.0000000000    0.3333333333    0.6666666667 T T T
   0.5000000000    0.3333333333    0.6666666667 T T T
   0.2500000000    0.8333333333    0.6666666667 T T T
   0.7500000000    0.8333333333    0.6666666667 T T T
   0.0000000000    0.0000000000    0.2500000000 T T T
   0.5000000000    0.0000000000    0.2500000000 T T T
   0.2500000000    0.5000000000    0.2500000000 T T T
   0.7500000000    0.5000000000    0.2500000000 T T T
   0.2500000000    0.1666666667    0.5833333333 T T T
   0.7500000000    0.1666666667    0.5833333333 T T T
   0.0000000000    0.6666666667    0.5833333333 T T T
   0.5000000000    0.6666666667    0.5833333333 T T T
   0.0000000000    0.3333333333    0.9166666667 T T T
   0.5000000000    0.3333333333    0.9166666667 T T T
   0.2500000000    0.8333333333    0.9166666667 T T T
   0.7500000000    0.8333333333    0.9166666667 T T T
 
 
 
