Generated by napsys.py at 2023-03-09. B N
   1.250000000000000
       3.626       0.0000000       0.0000000
       0.0000000       3.6260       0.0000000
       0.0000000       0.0000000       3.626
    B    N
    4    4
Selective dynamics
Direct
   0.000000000000000    0.000000000000000    0.000000000000000  T T T
       0.5000000       0.5000000       0.0000000 T T T
       0.5000000       0.0000000       0.5000000 T T T
       0.0000000       0.5000000       0.5000000 T T T
       0.2500000       0.2500000       0.2500000 T T T
       0.7500000       0.7500000       0.2500000 T T T
       0.7500000       0.2500000       0.7500000 T T T
       0.2500000       0.7500000       0.7500000 T T T
